\Generated by Cardinal Operations

Maximize
   25 x_1 + 30 x_2 + 300 x_3 + 50 x_4 + 500 x_5 + 25 x_6 + 30 x_7 + 300 x_8 
   + 50 x_9 + 500 x_10 + 25 x_11 + 30 x_12 + 300 x_13 + 50 x_14 + 500 x_15 
   + 25 x_16 + 30 x_17 + 50 x_18 + 300 x_19 + 500 x_20 + 25 x_21 + 30 x_22 
   + 50 x_23 + 300 x_24 + 500 x_25 + 25 x_26 + 30 x_27 + 50 x_28 + 300 x_29 
   + 500 x_30 + 25 x_31 + 30 x_32 + 50 x_33 + 300 x_34 + 500 x_35 
Subject To
 inventory_constraint: x_1 <= 1570
 x_2 <= 1330
 x_3 <= 1420
 x_4 <= 1700
 x_5 <= 1690
 x_6 <= 1840
 x_7 <= 1710
 x_8 <= 1930
 x_9 <= 1890
 x_10 <= 1570
 x_11 <= 1810
 x_12 <= 1410
 x_13 <= 1830
 x_14 <= 1750
 x_15 <= 1690
 x_16 <= 1660
 x_17 <= 1417
 x_18 <= 1807
 x_19 <= 1268
 x_20 <= 1612
 x_21 <= 1749
 x_22 <= 1476
 x_23 <= 1853
 x_24 <= 1352
 x_25 <= 1684
 x_26 <= 1573
 x_27 <= 1385
 x_28 <= 1768
 x_29 <= 1456
 x_30 <= 1632
 x_31 <= 1671
 x_32 <= 1528
 x_33 <= 1892
 x_34 <= 1294
 x_35 <= 1716
 demand_constraint: x_1 <= 240
 x_2 <= 202
 x_3 <= 216
 x_4 <= 263
 x_5 <= 256
 x_6 <= 281
 x_7 <= 261
 x_8 <= 295
 x_9 <= 290
 x_10 <= 244
 x_11 <= 273
 x_12 <= 220
 x_13 <= 286
 x_14 <= 268
 x_15 <= 262
 x_16 <= 255
 x_17 <= 218
 x_18 <= 278
 x_19 <= 195
 x_20 <= 248
 x_21 <= 269
 x_22 <= 227
 x_23 <= 285
 x_24 <= 208
 x_25 <= 259
 x_26 <= 242
 x_27 <= 213
 x_28 <= 272
 x_29 <= 224
 x_30 <= 251
 x_31 <= 257
 x_32 <= 235
 x_33 <= 291
 x_34 <= 199
 x_35 <= 264
Generals
 x_1  x_2  x_3  x_4  x_5  x_6  x_7  x_8  x_9  x_10  x_11  x_12  x_13  x_14  
 x_15  x_16  x_17  x_18  x_19  x_20  x_21  x_22  x_23  x_24  x_25  x_26  
 x_27  x_28  x_29  x_30  x_31  x_32  x_33  x_34  x_35  
END

